InboundTrucks  = 10;
OutboundTrucks = 10;
InboundDoors   = 4;
OutboundDoors  = 4;
ReleaseTime    = [17,72,108,102,97,8,32,15,63,97];
UnloadTime     = [40,16,39,39,21,17,32,27,40,20];
LoadTime       = [11,10,14,15,11,14,8,14,5,5];
TransferTime   = [| 0,0,0,0,0,0,5,7,4,0 | 8,5,3,4,0,3,0,8,6,3 | 6,8,4,0,4,8,0,0,0,0 | 0,5,2,7,0,8,0,0,7,0 | 3,3,0,7,0,0,0,0,2,6 | 0,8,8,8,8,3,8,0,3,0 | 0,0,3,5,5,2,0,0,4,0 | 0,0,2,7,0,0,0,3,0,0 | 0,4,0,2,0,0,0,3,0,4 | 0,8,4,0,6,0,0,0,2,5 |];
